p cnf 111 341
c t mc
-4 -2 0
-4 3 0
2 -3 4 0
-5 -1 0
-5 4 0
1 -4 5 0
-8 -6 0
-8 7 0
6 -7 8 0
11 -9 0
11 -10 0
9 10 -11 0
12 -8 0
12 11 0
8 -11 -12 0
13 -5 0
13 -12 0
5 12 -13 0
-15 14 0
-15 -3 0
-14 3 15 0
-13 -15 -16 0
13 15 -16 0
-13 15 16 0
13 -15 16 0
-18 17 0
-18 1 0
-17 -1 18 0
-16 18 -19 0
16 -18 -19 0
-16 -18 19 0
16 18 19 0
10 20 -21 0
-10 -20 -21 0
10 -20 21 0
-10 20 21 0
24 22 0
24 -23 0
-22 23 -24 0
-25 21 0
-25 -24 0
-21 24 25 0
-28 -26 0
-28 27 0
26 -27 28 0
25 -28 -29 0
-25 28 -29 0
25 28 29 0
-25 -28 29 0
31 6 0
31 20 0
-6 -20 -31 0
32 31 0
32 -22 0
-31 22 -32 0
-33 -30 0
-33 -32 0
30 32 33 0
-34 10 0
-34 7 0
-10 -7 34 0
-31 21 -35 0
31 -21 -35 0
-31 -21 35 0
31 21 35 0
-20 35 -36 0
20 -35 -36 0
-20 -35 36 0
20 35 36 0
-37 -34 0
-37 -36 0
34 36 37 0
-33 -37 -38 0
33 37 -38 0
-33 37 38 0
33 -37 38 0
-39 -29 0
-39 38 0
29 -38 39 0
-40 19 0
-40 39 0
-19 -39 40 0
35 -26 -41 0
-35 26 -41 0
35 26 41 0
-35 -26 41 0
42 -6 0
42 17 0
6 -17 -42 0
-45 43 0
-45 44 0
-43 -44 45 0
46 -45 0
46 1 0
45 -1 -46 0
-47 -42 0
-47 -46 0
42 46 47 0
41 47 -48 0
-41 -47 -48 0
41 -47 48 0
-41 47 48 0
4 3 -49 0
-4 -3 -49 0
4 -3 49 0
-4 3 49 0
-48 -49 -50 0
48 49 -50 0
-48 49 50 0
48 -49 50 0
51 9 0
51 11 0
-9 -11 -51 0
-53 -23 0
-53 52 0
23 -52 53 0
-54 -10 0
-54 43 0
10 -43 54 0
-53 -54 -55 0
53 54 -55 0
-53 54 55 0
53 -54 55 0
56 -51 0
56 -55 0
51 55 -56 0
57 50 0
57 56 0
-50 -56 -57 0
58 -52 0
58 26 0
52 -26 -58 0
45 -58 -59 0
-45 58 -59 0
45 58 59 0
-45 -58 59 0
60 -59 0
60 -7 0
59 7 -60 0
-62 52 0
-62 -61 0
-52 61 62 0
63 17 0
63 21 0
-17 -21 -63 0
64 -62 0
64 63 0
62 -63 -64 0
60 64 -65 0
-60 -64 -65 0
60 -64 65 0
-60 64 65 0
9 66 -67 0
-9 -66 -67 0
9 -66 67 0
-9 66 67 0
68 -27 0
68 67 0
27 -67 -68 0
68 -69 -70 0
-68 69 -70 0
68 69 70 0
-68 -69 70 0
71 30 0
71 -59 0
-30 59 -71 0
61 -72 -73 0
-61 72 -73 0
61 72 73 0
-61 -72 73 0
-74 -71 0
-74 -73 0
71 73 74 0
-75 -74 0
-75 24 0
74 -24 75 0
70 75 -76 0
-70 -75 -76 0
70 -75 76 0
-70 75 76 0
-77 65 0
-77 -76 0
-65 76 77 0
78 57 0
78 -77 0
-57 77 -78 0
-21 58 -79 0
21 -58 -79 0
-21 -58 79 0
21 58 79 0
80 -27 0
80 14 0
27 -14 -80 0
-79 -80 -81 0
79 80 -81 0
-79 80 81 0
79 -80 81 0
-21 81 -82 0
21 -81 -82 0
-21 -81 82 0
21 81 82 0
84 62 0
84 83 0
-62 -83 -84 0
21 73 -85 0
-21 -73 -85 0
21 -73 85 0
-21 73 85 0
86 -85 0
86 -66 0
85 66 -86 0
-84 -86 -87 0
84 86 -87 0
-84 86 87 0
84 -86 87 0
-88 -82 0
-88 -87 0
82 87 88 0
-89 -9 0
-89 72 0
9 -72 89 0
-90 89 0
-90 31 0
-89 -31 90 0
-88 -90 -91 0
88 90 -91 0
-88 90 91 0
88 -90 91 0
8 85 -92 0
-8 -85 -92 0
8 -85 92 0
-8 85 92 0
93 73 0
93 -7 0
-73 7 -93 0
94 -58 0
94 -93 0
58 93 -94 0
94 -22 -95 0
-94 22 -95 0
94 22 95 0
-94 -22 95 0
-92 -95 -96 0
92 95 -96 0
-92 95 96 0
92 -95 96 0
-97 -67 0
-97 -8 0
67 8 97 0
-98 96 0
-98 97 0
-96 -97 98 0
-99 91 0
-99 98 0
-91 -98 99 0
-100 -9 0
-100 -23 0
9 23 100 0
58 -7 -101 0
-58 7 -101 0
58 7 101 0
-58 -7 101 0
101 -8 -102 0
-101 8 -102 0
101 8 102 0
-101 -8 102 0
102 -101 -103 0
-102 101 -103 0
102 101 103 0
-102 -101 103 0
-100 -103 -104 0
100 103 -104 0
-100 103 104 0
100 -103 104 0
99 -104 -105 0
-99 104 -105 0
99 104 105 0
-99 -104 105 0
106 1 0
106 43 0
-1 -43 -106 0
-80 -20 -107 0
80 20 -107 0
-80 20 107 0
80 -20 107 0
-108 -106 0
-108 -107 0
106 107 108 0
-109 105 0
-109 -108 0
-105 108 109 0
78 -109 -110 0
-78 109 -110 0
78 109 110 0
-78 -109 110 0
-111 -40 0
-111 -110 0
40 110 111 0
-83 -36 -42 106 34 19 0
19 36 35 87 -78 109 41 -45 0
22 2 100 38 -16 -44 36 93 69 0
49 87 5 45 -7 0
45 18 -51 56 0
94 35 -91 55 46 -93 9 34 0
84 1 -43 94 -62 -99 5 67 0
-30 -19 109 87 67 -14 41 17 -83 -46 0
-84 -91 -87 73 -59 104 -70 -89 22 38 0
15 -68 -11 62 17 -19 0
-96 91 -86 -22 62 109 0
26 -109 51 -62 49 -31 -12 8 87 0
86 14 69 -42 74 -70 -7 0
38 47 -89 72 16 -43 0
-100 -84 77 0
-17 -22 -73 0
-92 48 50 -76 0
101 -61 -85 25 0
-45 -62 73 -46 98 -54 -6 77 -21 0
-22 89 -87 93 30 74 -81 -29 0
-31 -60 58 0
78 -97 42 0
-106 -62 97 16 -35 28 -4 -12 76 0
90 -95 -4 -72 109 65 0
-37 67 25 -99 53 -96 -75 105 -26 0
-51 -28 -32 66 -2 110 81 -15 52 0
67 -38 81 63 -61 69 -97 -24 0
-10 50 91 -80 -13 12 0
-12 108 60 -22 0
99 66 93 -52 -68 14 -94 33 -104 0
-102 4 48 -69 -74 -54 0
-39 106 83 0
-11 55 -14 -28 -25 -100 -106 -46 0
-108 -80 -91 -17 -102 -65 0
-82 73 -81 95 44 -3 68 -59 0
-42 108 -74 0
-56 -46 19 -88 -81 93 -96 0
-61 24 30 -21 0
-99 -6 92 -19 51 87 -95 0
59 88 91 39 99 0
41 -47 100 50 6 0
101 32 -78 15 -66 -6 -33 0
111 0
